p cnf 30 336
1 4 7 10 13 16 19 22 25 28 0
2 5 8 11 14 17 20 23 26 29 0
3 6 9 12 15 18 21 24 27 30 0
-1 -5 0
-1 -6 0
-2 -4 0
-2 -6 0
-3 -4 0
-3 -5 0
-1 -8 0
-1 -9 0
-2 -7 0
-2 -9 0
-3 -7 0
-3 -8 0
-1 -14 0
-1 -15 0
-2 -13 0
-2 -15 0
-3 -13 0
-3 -14 0
-1 -20 0
-1 -21 0
-2 -19 0
-2 -21 0
-3 -19 0
-3 -20 0
-1 -23 0
-1 -24 0
-2 -22 0
-2 -24 0
-3 -22 0
-3 -23 0
-4 -8 0
-4 -9 0
-5 -7 0
-5 -9 0
-6 -7 0
-6 -8 0
-4 -11 0
-4 -12 0
-5 -10 0
-5 -12 0
-6 -10 0
-6 -11 0
-4 -14 0
-4 -15 0
-5 -13 0
-5 -15 0
-6 -13 0
-6 -14 0
-4 -17 0
-4 -18 0
-5 -16 0
-5 -18 0
-6 -16 0
-6 -17 0
-4 -20 0
-4 -21 0
-5 -19 0
-5 -21 0
-6 -19 0
-6 -20 0
-4 -23 0
-4 -24 0
-5 -22 0
-5 -24 0
-6 -22 0
-6 -23 0
-7 -17 0
-7 -18 0
-8 -16 0
-8 -18 0
-9 -16 0
-9 -17 0
-7 -20 0
-7 -21 0
-8 -19 0
-8 -21 0
-9 -19 0
-9 -20 0
-7 -23 0
-7 -24 0
-8 -22 0
-8 -24 0
-9 -22 0
-9 -23 0
-7 -26 0
-7 -27 0
-8 -25 0
-8 -27 0
-9 -25 0
-9 -26 0
-10 -14 0
-10 -15 0
-11 -13 0
-11 -15 0
-12 -13 0
-12 -14 0
-10 -17 0
-10 -18 0
-11 -16 0
-11 -18 0
-12 -16 0
-12 -17 0
-10 -23 0
-10 -24 0
-11 -22 0
-11 -24 0
-12 -22 0
-12 -23 0
-10 -26 0
-10 -27 0
-11 -25 0
-11 -27 0
-12 -25 0
-12 -26 0
-10 -29 0
-10 -30 0
-11 -28 0
-11 -30 0
-12 -28 0
-12 -29 0
-13 -17 0
-13 -18 0
-14 -16 0
-14 -18 0
-15 -16 0
-15 -17 0
-13 -20 0
-13 -21 0
-14 -19 0
-14 -21 0
-15 -19 0
-15 -20 0
-13 -29 0
-13 -30 0
-14 -28 0
-14 -30 0
-15 -28 0
-15 -29 0
-16 -20 0
-16 -21 0
-17 -19 0
-17 -21 0
-18 -19 0
-18 -20 0
-19 -23 0
-19 -24 0
-20 -22 0
-20 -24 0
-21 -22 0
-21 -23 0
-19 -29 0
-19 -30 0
-20 -28 0
-20 -30 0
-21 -28 0
-21 -29 0
-22 -29 0
-22 -30 0
-23 -28 0
-23 -30 0
-24 -28 0
-24 -29 0
-25 -29 0
-25 -30 0
-26 -28 0
-26 -30 0
-27 -28 0
-27 -29 0
-31 -5 0
-31 -6 0
-32 -4 0
-32 -6 0
-33 -4 0
-33 -5 0
-31 -8 0
-31 -9 0
-32 -7 0
-32 -9 0
-33 -7 0
-33 -8 0
-31 -11 0
-31 -12 0
-32 -10 0
-32 -12 0
-33 -10 0
-33 -11 0
-31 -14 0
-31 -15 0
-32 -13 0
-32 -15 0
-33 -13 0
-33 -14 0
-31 -17 0
-31 -18 0
-32 -16 0
-32 -18 0
-33 -16 0
-33 -17 0
-31 -20 0
-31 -21 0
-32 -19 0
-32 -21 0
-33 -19 0
-33 -20 0
-31 -23 0
-31 -24 0
-32 -22 0
-32 -24 0
-33 -22 0
-33 -23 0
-31 -26 0
-31 -27 0
-32 -25 0
-32 -27 0
-33 -25 0
-33 -26 0
-31 -29 0
-31 -30 0
-32 -28 0
-32 -30 0
-33 -28 0
-33 -29 0
-34 -8 0
-34 -9 0
-35 -7 0
-35 -9 0
-36 -7 0
-36 -8 0
-34 -11 0
-34 -12 0
-35 -10 0
-35 -12 0
-36 -10 0
-36 -11 0
-34 -14 0
-34 -15 0
-35 -13 0
-35 -15 0
-36 -13 0
-36 -14 0
-34 -17 0
-34 -18 0
-35 -16 0
-35 -18 0
-36 -16 0
-36 -17 0
-34 -20 0
-34 -21 0
-35 -19 0
-35 -21 0
-36 -19 0
-36 -20 0
-34 -23 0
-34 -24 0
-35 -22 0
-35 -24 0
-36 -22 0
-36 -23 0
-34 -26 0
-34 -27 0
-35 -25 0
-35 -27 0
-36 -25 0
-36 -26 0
-34 -29 0
-34 -30 0
-35 -28 0
-35 -30 0
-36 -28 0
-36 -29 0
-37 -11 0
-37 -12 0
-38 -10 0
-38 -12 0
-39 -10 0
-39 -11 0
-37 -14 0
-37 -15 0
-38 -13 0
-38 -15 0
-39 -13 0
-39 -14 0
-37 -17 0
-37 -18 0
-38 -16 0
-38 -18 0
-39 -16 0
-39 -17 0
-37 -20 0
-37 -21 0
-38 -19 0
-38 -21 0
-39 -19 0
-39 -20 0
-37 -23 0
-37 -24 0
-38 -22 0
-38 -24 0
-39 -22 0
-39 -23 0
-37 -26 0
-37 -27 0
-38 -25 0
-38 -27 0
-39 -25 0
-39 -26 0
-37 -29 0
-37 -30 0
-38 -28 0
-38 -30 0
-39 -28 0
-39 -29 0
-40 -14 0
-40 -15 0
-41 -13 0
-41 -15 0
-42 -13 0
-42 -14 0
-40 -17 0
-40 -18 0
-41 -16 0
-41 -18 0
-42 -16 0
-42 -17 0
-40 -20 0
-40 -21 0
-41 -19 0
-41 -21 0
-42 -19 0
-42 -20 0
-40 -23 0
-40 -24 0
-41 -22 0
-41 -24 0
-42 -22 0
-42 -23 0
-40 -26 0
-40 -27 0
-41 -25 0
-41 -27 0
-42 -25 0
-42 -26 0
-40 -29 0
-40 -30 0
-41 -28 0
-41 -30 0
-42 -28 0
-42 -29 0
-43 -17 0
-43 -18 0
-44 -16 0
-44 -18 0
-45 -16 0
-45 -17 0
-43 -20 0
-43 -21 0
-44 -19 0
-44 -21 0
-45 -19 0
-45 -20 0
-43 -23 0
-43 -24 0
-44 -22 0
-44 -24 0
-45 -22 0
-45 -23 0
-43 -26 0
-43 -27 0
-44 -25 0
-44 -27 0
-45 -25 0
-45 -26 0
-43 -29 0
-43 -30 0
-44 -28 0
-44 -30 0
-45 -28 0
-45 -29 0
-46 -20 0
-46 -21 0
-47 -19 0
-47 -21 0
-48 -19 0
-48 -20 0
-46 -23 0
-46 -24 0
-47 -22 0
-47 -24 0
-48 -22 0
-48 -23 0
-46 -26 0
-46 -27 0
-47 -25 0
-47 -27 0
-48 -25 0
-48 -26 0
-46 -29 0
-46 -30 0
-47 -28 0
-47 -30 0
-48 -28 0
-48 -29 0
-49 -23 0
-49 -24 0
-50 -22 0
-50 -24 0
-51 -22 0
-51 -23 0
-49 -26 0
-49 -27 0
-50 -25 0
-50 -27 0
-51 -25 0
-51 -26 0
-49 -29 0
-49 -30 0
-50 -28 0
-50 -30 0
-51 -28 0
-51 -29 0
-52 -26 0
-52 -27 0
-53 -25 0
-53 -27 0
-54 -25 0
-54 -26 0
-52 -29 0
-52 -30 0
-53 -28 0
-53 -30 0
-54 -28 0
-54 -29 0
-55 -29 0
-55 -30 0
-56 -28 0
-56 -30 0
-57 -28 0
-57 -29 0
-1 -4 0
-1 -7 0
-1 -10 0
-1 -13 0
-1 -16 0
-1 -19 0
-1 -22 0
-1 -25 0
-1 -28 0
-2 -5 0
-2 -8 0
-2 -11 0
-2 -14 0
-2 -17 0
-2 -20 0
-2 -23 0
-2 -26 0
-2 -29 0
-3 -6 0
-3 -9 0
-3 -12 0
-3 -15 0
-3 -18 0
-3 -21 0
-3 -24 0
-3 -27 0
-3 -30 0
-4 -7 0
-4 -10 0
-4 -13 0
-4 -16 0
-4 -19 0
-4 -22 0
-4 -25 0
-4 -28 0
-5 -8 0
-5 -11 0
-5 -14 0
-5 -17 0
-5 -20 0
-5 -23 0
-5 -26 0
-5 -29 0
-6 -9 0
-6 -12 0
-6 -15 0
-6 -18 0
-6 -21 0
-6 -24 0
-6 -27 0
-6 -30 0
-7 -10 0
-7 -13 0
-7 -16 0
-7 -19 0
-7 -22 0
-7 -25 0
-7 -28 0
-8 -11 0
-8 -14 0
-8 -17 0
-8 -20 0
-8 -23 0
-8 -26 0
-8 -29 0
-9 -12 0
-9 -15 0
-9 -18 0
-9 -21 0
-9 -24 0
-9 -27 0
-9 -30 0
-10 -13 0
-10 -16 0
-10 -19 0
-10 -22 0
-10 -25 0
-10 -28 0
-11 -14 0
-11 -17 0
-11 -20 0
-11 -23 0
-11 -26 0
-11 -29 0
-12 -15 0
-12 -18 0
-12 -21 0
-12 -24 0
-12 -27 0
-12 -30 0
-13 -16 0
-13 -19 0
-13 -22 0
-13 -25 0
-13 -28 0
-14 -17 0
-14 -20 0
-14 -23 0
-14 -26 0
-14 -29 0
-15 -18 0
-15 -21 0
-15 -24 0
-15 -27 0
-15 -30 0
-16 -19 0
-16 -22 0
-16 -25 0
-16 -28 0
-17 -20 0
-17 -23 0
-17 -26 0
-17 -29 0
-18 -21 0
-18 -24 0
-18 -27 0
-18 -30 0
-19 -22 0
-19 -25 0
-19 -28 0
-20 -23 0
-20 -26 0
-20 -29 0
-21 -24 0
-21 -27 0
-21 -30 0
-22 -25 0
-22 -28 0
-23 -26 0
-23 -29 0
-24 -27 0
-24 -30 0
-25 -28 0
-26 -29 0
-27 -30 0
-1 -2 0
-1 -3 0
-2 -3 0
-4 -5 0
-4 -6 0
-5 -6 0
-7 -8 0
-7 -9 0
-8 -9 0
-10 -11 0
-10 -12 0
-11 -12 0
-13 -14 0
-13 -15 0
-14 -15 0
-16 -17 0
-16 -18 0
-17 -18 0
-19 -20 0
-19 -21 0
-20 -21 0
-22 -23 0
-22 -24 0
-23 -24 0
-25 -26 0
-25 -27 0
-26 -27 0
-28 -29 0
-28 -30 0
-29 -30 0
